generated by phonopy
   0.5
     6.0098301784770811    0.0000000000000000    0.0000000000000000
     0.0000000000000000    6.0098301784770811    0.0000000000000000
     0.0000000000000000    0.0000000000000000    6.0098301784770811
Fe Rh
   1    1
Direct
  0.0000000000000000  0.0000000000000000  0.0000000000000000
  0.5000000000000000  0.5000000000000000  0.5000000000000000